nNurses = 181;
nHours = 30;
minHours = 10;
maxHours = 10;
maxConsec = 6;
maxPresence = 20;
demand = [44, 48, 49, 50, 47, 43, 45, 50, 45, 48, 44, 43, 48, 46, 49, 44, 48, 44, 40, 39, 38, 35, 31, 27, 28, 23, 19, 17, 21, 23];
